c clasp version 2.1.1
c Reading from p57.cnf
c Solving...
s SATISFIABLE

c Models        : 1+    
c Time          : 1.746s (Solving: 0.29s 1st Model: 0.29s Unsat: 0.00s)
c CPU Time      : 1.730s
c Choices       : 11169
c Conflicts     : 598
c Restarts      : 1      (Average: 598.00 Last: 423)

c Variables     : 229157 (Eliminated: 71622 Frozen:    0)
c Constraints   : 261769 (Binary: 64.9% Ternary: 33.9% Other:  1.3%)
c Lemmas        : 598    (Binary:  0.0% Ternary:  0.8% Other: 99.2%)
c   Conflict    : 598    (Average Length: 30.0) 
c   Loop        : 0      (Average Length: 0.0) 
c   Other       : 0      (Average Length: 0.0)
c   Deleted     : 0     
